solution status: time limit reached
objective value:                                   81
$_319_y                                            16 	(obj:0)
$_319_z                                             8 	(obj:0)
$_114_y                                            14 	(obj:0)
$_114_z                                             9 	(obj:0)
$_183_y                                            21 	(obj:0)
$_183_z                                            18 	(obj:0)
$_311_y                                            17 	(obj:0)
$_311_z                                            20 	(obj:0)
$_167_y                                            21 	(obj:0)
$_167_z                                            19 	(obj:0)
$_118_y                                            18 	(obj:0)
$_118_z                                             8 	(obj:0)
$_280_y                                            19 	(obj:0)
$_280_z                                            22 	(obj:0)
$_106_y                                            18 	(obj:0)
$_106_z                                            16 	(obj:0)
$_295_y                                            18 	(obj:0)
$_295_z                                            20 	(obj:0)
$_296_y                                            17 	(obj:0)
$_296_z                                            19 	(obj:0)
$_264_y                                            17 	(obj:0)
$_264_z                                            18 	(obj:0)
$_99_y                                             17 	(obj:0)
$_99_z                                              7 	(obj:0)
$_115_y                                            16 	(obj:0)
$_115_z                                             7 	(obj:0)
$_251_y                                            16 	(obj:0)
$_251_z                                            17 	(obj:0)
$_283_y                                            15 	(obj:0)
$_283_z                                            18 	(obj:0)
$_216_y                                            18 	(obj:0)
$_216_z                                            19 	(obj:0)
$_299_y                                            15 	(obj:0)
$_299_z                                            16 	(obj:0)
$_232_y                                            17 	(obj:0)
$_232_z                                            21 	(obj:0)
$_279_y                                            18 	(obj:0)
$_279_z                                            21 	(obj:0)
$_100_y                                            18 	(obj:0)
$_100_z                                             7 	(obj:0)
$_97_y                                             16 	(obj:0)
$_97_z                                              9 	(obj:0)
$_184_y                                            19 	(obj:0)
$_184_z                                            19 	(obj:0)
$_203_y                                            20 	(obj:0)
$_203_z                                            19 	(obj:0)
$_231_y                                            18 	(obj:0)
$_231_z                                            22 	(obj:0)
$_267_y                                            15 	(obj:0)
$_267_z                                            20 	(obj:0)
$_96_y                                             14 	(obj:0)
$_96_z                                              8 	(obj:0)
$_215_y                                            17 	(obj:0)
$_215_z                                            22 	(obj:0)
$_200_y                                            20 	(obj:0)
$_200_z                                            18 	(obj:0)
$_187_y                                            19 	(obj:0)
$_187_z                                            20 	(obj:0)
$_170_y                                            18 	(obj:0)
$_170_z                                            17 	(obj:0)
$_116_y                                            15 	(obj:0)
$_116_z                                             8 	(obj:0)
$_112_y                                            19 	(obj:0)
$_112_z                                            18 	(obj:0)
$_199_y                                            21 	(obj:0)
$_199_z                                            20 	(obj:0)
$_127_y                                            14 	(obj:0)
$_127_z                                            16 	(obj:0)
$_219_y                                            16 	(obj:0)
$_219_z                                            18 	(obj:0)
$_94_y                                             21 	(obj:0)
$_94_z                                             21 	(obj:0)
$_117_y                                            17 	(obj:0)
$_117_z                                             8 	(obj:0)
$_235_y                                            20 	(obj:0)
$_235_z                                            20 	(obj:0)
$_263_y                                            18 	(obj:0)
$_263_z                                            18 	(obj:0)
$_166_y                                            21 	(obj:0)
$_166_z                                            22 	(obj:0)
$_248_y                                            20 	(obj:0)
$_248_z                                            21 	(obj:0)
$_247_y                                            19 	(obj:0)
$_247_z                                            21 	(obj:0)
$_98_y                                             15 	(obj:0)
$_98_z                                              7 	(obj:0)
x93                                                 1 	(obj:1)
x95                                                 2 	(obj:1)
x100                                                1 	(obj:1)
x102                                                5 	(obj:1)
x103                                                1 	(obj:1)
x105                                                1 	(obj:1)
x106                                                2 	(obj:1)
x108                                                1 	(obj:1)
x109                                                2 	(obj:1)
x110                                                1 	(obj:1)
x125                                                2 	(obj:1)
x126                                                2 	(obj:1)
x127                                                1 	(obj:1)
x128                                                1 	(obj:1)
x130                                                1 	(obj:1)
x135                                                5 	(obj:1)
x139                                                4 	(obj:1)
x140                                                2 	(obj:1)
x142                                                1 	(obj:1)
x143                                                1 	(obj:1)
x145                                                1 	(obj:1)
x163                                                2 	(obj:1)
x169                                                3 	(obj:1)
x176                                                3 	(obj:1)
x177                                                4 	(obj:1)
x181                                                2 	(obj:1)
x182                                                1 	(obj:1)
x185                                                1 	(obj:1)
x186                                                5 	(obj:1)
x188                                                1 	(obj:1)
x190                                                1 	(obj:1)
x191                                                1 	(obj:1)
x200                                                2 	(obj:1)
x202                                                3 	(obj:1)
x210                                                2 	(obj:1)
x215                                                3 	(obj:1)
x217                                                1 	(obj:1)
x218                                                1 	(obj:1)
x220                                                1 	(obj:1)
x222                                                2 	(obj:1)
x226                                                1 	(obj:1)
x229                                                1 	(obj:1)
x230                                                2 	(obj:1)
